85 
300 
10.5 14.4 0 0
11.2 14.1 0 -77
18 15.9 10 -16
18.3 13.3 -10 -118
16.5 9.3 -10 -77
15.4 11 10 -10
14.9 13.2 -5 -125
16.3 13.3 -5 -120
16.4 17.8 -5 -121
15 17.9 5 -11
16.1 19.6 10 -10
15.7 20.6 10 -28
13.2 20.1 -10 -63
14.3 15.3 5 -27
14 5.1 -10 -129
11.4 6.7 15 -21
8.3 5 -15 -103
7.9 9.8 10 -23
11.4 12 -5 -128
11.2 17.6 5 -19
10.1 18.7 -5 -69
11.7 20.3 -10 -96
10.2 22.1 10 -25
9.7 23.8 10 -10
10.1 26.4 15 -23
7.4 24 15 -22
8.2 19.9 15 -26
8.7 17.7 10 -15
8.9 13.6 10 -29
5.6 11.1 10 -29
4.9 18.9 10 -15
7.3 18.8 10 -12
